NAME : single
TYPE : ATSP
DIMENSION : 10
EDGE_WEIGHT_TYPE : EXPLICIT
EDGE_WEIGHT_FORMAT : FULL_MATRIX
EDGE_WEIGHT_SECTION
0 994 950 728 899 919 897 655 307 212 
0 0 122 214 343 354 261 310 605 517 
0 122 0 232 270 291 228 278 554 487 
0 214 232 0 223 249 297 89 347 271 
0 343 270 223 0 80 264 251 538 486 
0 354 291 249 80 0 183 276 553 503 
0 261 228 297 264 183 0 225 514 458 
0 310 278 89 251 276 225 0 269 196 
0 605 554 347 538 553 514 269 0 100 
0 517 487 271 486 503 458 196 100 0 
EOF